100 1000
45 461
9 460
32 199
37 90
57 436
70 370
39 323
84 280
2 351
71 163
85 63
18 145
15 465
14 390
71 89
35 154
78 117
92 185
27 361
82 446
34 268
63 138
7 57
82 226
36 32
1 180
99 76
82 144
21 389
57 292
91 228
72 14
15 48
89 472
20 289
5 437
48 308
71 85
56 75
6 167
47 470
6 470
46 117
88 137
86 62
46 409
72 462
53 327
96 89
31 452
21 419
23 461
53 22
23 387
43 410
53 420
86 452
95 425
32 146
21 413
90 65
49 456
5 449
61 123
26 428
59 189
40 430
30 124
4 347
25 214
43 152
9 405
36 189
83 270
52 357
69 179
4 69
34 101
75 145
5 65
77 232
45 383
41 233
78 271
15 207
74 107
33 32
91 233
1 276
69 361
93 491
95 387
86 110
47 230
9 495
86 481
43 329
41 349
16 378
39 269
